param givens : 1 2 3 4 5 6 7 8 9 10 :=
           1   9 . . . 12 . . 5 . .
           2   . . . . . . . . . .
           3   . . . . . . . . . 6
           4   8 . 6 . 8 . . . . .
           5   . . . . . . . . . .
           6   . . . . . . . . . .
           7   . . . . . 6 . 8 . 12
           8   4 . . . . . . . . .
           9   . . . . . . . . . .
          10   . . 3 . . 9 . . . 4
           ;

